solution status: optimal solution found
objective value:                                   20
x27                                                 1 	(obj:1)
x28                                                 1 	(obj:1)
x30                                                 1 	(obj:1)
x31                                                 1 	(obj:1)
x32                                                 1 	(obj:1)
x35                                                 1 	(obj:1)
x36                                                 1 	(obj:1)
x37                                                 1 	(obj:1)
x39                                                 1 	(obj:1)
x40                                                 1 	(obj:1)
x43                                                 1 	(obj:1)
x45                                                 1 	(obj:1)
x46                                                 1 	(obj:1)
x47                                                 1 	(obj:1)
x48                                                 1 	(obj:1)
x51                                                 1 	(obj:1)
x53                                                 1 	(obj:1)
x54                                                 1 	(obj:1)
x55                                                 1 	(obj:1)
x56                                                 1 	(obj:1)
one.ctrl_a[2].flush_y                               4 	(obj:0)
one.ctrl_a[2].flush_z                               2 	(obj:0)
one.thingy.devices[3].thingy.v4_y                    5 	(obj:0)
one.thingy.devices[3].thingy.v4_z                    5 	(obj:0)
one.ctrl_a[1].flush_y                               2 	(obj:0)
one.ctrl_a[1].flush_z                               2 	(obj:0)
one.ctrl_a[1].hole_y                                3 	(obj:0)
one.ctrl_a[1].hole_z                                3 	(obj:0)
one.ctrl_a[3].flush_y                               3 	(obj:0)
one.ctrl_a[3].flush_z                               2 	(obj:0)
one.thingy.devices[1].thingy.v4_y                    4 	(obj:0)
one.thingy.devices[1].thingy.v4_z                    7 	(obj:0)
one.ctrl_a[3].hole_y                                2 	(obj:0)
one.ctrl_a[3].hole_z                                3 	(obj:0)
one.thingy.devices[0].thingy.v4_y                    4 	(obj:0)
one.thingy.devices[0].thingy.v4_z                    6 	(obj:0)
one.ctrl_a[2].hole_y                                1 	(obj:0)
one.ctrl_a[2].hole_z                                3 	(obj:0)
one.thingy.devices[2].thingy.v4_y                    5 	(obj:0)
one.thingy.devices[2].thingy.v4_z                    6 	(obj:0)
